data/lp_files/q3/45_6.lp
\ Model foo
\ LP format - for model browsing. Use MPS format to capture full model detail.
Minimize
  z
Subject To
 allocateEach[1]: x[1,1] + x[2,1] + x[3,1] = 1
 allocateEach[2]: x[1,2] + x[2,2] + x[3,2] = 1
 allocateEach[3]: x[1,3] + x[2,3] + x[3,3] = 1
 allocateEach[4]: x[1,4] + x[2,4] + x[3,4] = 1
 allocateEach[5]: x[1,5] + x[2,5] + x[3,5] = 1
 allocateAllCash: cashProportion[1] + cashProportion[2] + cashProportion[3]
   = 1
 findWorstP[1,2]: z + 0.1862370798025887 cashProportion[1]
   - 0.1862370798025887 cashProportion[2] + 0.1808362044883136 x[1,1]
   + 0.4213148337834062 x[1,2] + 0.1214731353012385 x[1,3]
   + 0.083667008101313 x[1,4] + 0.00647173852313996 x[1,5]
   - 0.1808362044883136 x[2,1] - 0.4213148337834062 x[2,2]
   - 0.1214731353012385 x[2,3] - 0.083667008101313 x[2,4]
   - 0.00647173852313996 x[2,5] >= 0
 findWorstP[1,3]: z + 0.1862370798025887 cashProportion[1]
   - 0.1862370798025887 cashProportion[3] + 0.1808362044883136 x[1,1]
   + 0.4213148337834062 x[1,2] + 0.1214731353012385 x[1,3]
   + 0.083667008101313 x[1,4] + 0.00647173852313996 x[1,5]
   - 0.1808362044883136 x[3,1] - 0.4213148337834062 x[3,2]
   - 0.1214731353012385 x[3,3] - 0.083667008101313 x[3,4]
   - 0.00647173852313996 x[3,5] >= 0
 findWorstP[2,1]: z - 0.1048987726843596 cashProportion[1]
   + 0.1048987726843596 cashProportion[2] - 0.2621944823245568 x[1,1]
   - 0.1093307458302738 x[1,2] - 0.1917811811601804 x[1,3]
   - 0.1591576628553446 x[1,4] - 0.1726371551452848 x[1,5]
   + 0.2621944823245568 x[2,1] + 0.1093307458302738 x[2,2]
   + 0.1917811811601804 x[2,3] + 0.1591576628553446 x[2,4]
   + 0.1726371551452848 x[2,5] >= 0
 findWorstP[2,3]: z + 0.1048987726843596 cashProportion[2]
   - 0.1048987726843596 cashProportion[3] + 0.2621944823245568 x[2,1]
   + 0.1093307458302738 x[2,2] + 0.1917811811601804 x[2,3]
   + 0.1591576628553446 x[2,4] + 0.1726371551452848 x[2,5]
   - 0.2621944823245568 x[3,1] - 0.1093307458302738 x[3,2]
   - 0.1917811811601804 x[3,3] - 0.1591576628553446 x[3,4]
   - 0.1726371551452848 x[3,5] >= 0
 findWorstP[3,1]: z - 0.1203297033872812 cashProportion[1]
   + 0.1203297033872812 cashProportion[3] - 0.2115396185548403 x[1,1]
   - 0.1939413994344504 x[1,2] - 0.0121533 x[1,3]
   - 0.2177065158534384 x[1,4] - 0.2443294627278744 x[1,5]
   + 0.2115396185548403 x[3,1] + 0.1939413994344504 x[3,2]
   + 0.0121533 x[3,3] + 0.2177065158534384 x[3,4]
   + 0.2443294627278744 x[3,5] >= 0
 findWorstP[3,2]: z - 0.1203297033872812 cashProportion[2]
   + 0.1203297033872812 cashProportion[3] - 0.2115396185548403 x[2,1]
   - 0.1939413994344504 x[2,2] - 0.0121533 x[2,3]
   - 0.2177065158534384 x[2,4] - 0.2443294627278744 x[2,5]
   + 0.2115396185548403 x[3,1] + 0.1939413994344504 x[3,2]
   + 0.0121533 x[3,3] + 0.2177065158534384 x[3,4]
   + 0.2443294627278744 x[3,5] >= 0
Bounds
 z <= 1
 -infinity <= cashProportion[1] <= 1
 -infinity <= cashProportion[2] <= 1
 -infinity <= cashProportion[3] <= 1
Binaries
 x[1,1] x[1,2] x[1,3] x[1,4] x[1,5] x[2,1] x[2,2] x[2,3] x[2,4] x[2,5]
 x[3,1] x[3,2] x[3,3] x[3,4] x[3,5]
End
